number_of_breeds = 219;

breed_name = [
  /* Herding */
/* 1 */  "Australian Cattle Dog",
/* 2 */  "Australian Shepherd",
/* 3 */  "Bearded Collie",
/* 4 */  "Beauceron",
/* 5 */  "Belgian Laekenois",
/* 6 */  "Belgian Malinois",
/* 7 */  "Belgian Sheepdog",
/* 8 */  "Belgian Tervuren",
/* 9 */  "Bergamasco",
/* 10 */  "Berger Picard",
/* 11 */  "Border Collie",
/* 12 */  "Bouvier des Flandres",
/* 13 */  "Briard",
/* 14 */  "Canaan Dog",
/* 15 */  "Cardigan Welsh Corgi",
/* 16 */  "Collie (Rough)",
/* 17 */  "Collie (Smooth)",
/* 18 */  "Entlebucher Mountain Dog",
/* 19 */  "Finnish Lapphund",
/* 20 */  "German Shepherd Dog",
/* 21 */  "Icelandic Sheepdog",
/* 22 */  "Miniature American Shepherd",
/* 23 */  "Norwegian Buhund",
/* 24 */  "Old English Sheepdog",
/* 25 */  "Pembroke Welsh Corgi",
/* 26 */  "Polish Lowland Sheepdog",
/* 27 */  "Puli",
/* 28 */  "Pumi",
/* 29 */  "Pyrenean Shepherd",
/* 30 */  "Shetland Sheepdog",
/* 31 */  "Spanish Water Dog",
/* 32 */  "Swedish Vallhund",

  /* Hound */
/* 33 */  "Afghan Hound",
/* 34 */  "American English Coonhound",
/* 35 */  "American Foxhound",
/* 36 */  "Azawakh",
/* 37 */  "Basenji",
/* 38 */  "Basset Hound",
/* 39 */  "Beagle (13-inch)",
/* 40 */  "Beagle (15-inch)",
/* 41 */  "Black and Tan Coonhound",
/* 42 */  "Bloodhound",
/* 43 */  "Bluetick Coonhound",
/* 44 */  "Borzoi",
/* 45 */  "Cirneco Dell’Etna",
/* 46 */  "Dachshund (Long-Haired)",
/* 47 */  "Dachshund (Smooth)",
/* 48 */  "Dachshund (Wire-Haired)",
/* 49 */  "English Foxhound",
/* 50 */  "Grand Basset Griffon Vendeen",
/* 51 */  "Greyhound",
/* 52 */  "Harrier",
/* 53 */  "Ibizan Hound",
/* 54 */  "Irish Wolfhound",
/* 55 */  "Norwegian Elkhound",
/* 56 */  "Otterhound",
/* 57 */  "Petit Basset Griffon Vendeen",
/* 58 */  "Pharaoh Hound",
/* 59 */  "Plott Hound",
/* 60 */  "Portuguese Podengo Pequeno",
/* 61 */  "Redbone Coonhound",
/* 62 */  "Rhodesian Ridgeback",
/* 63 */  "Saluki",
/* 64 */  "Scottish Deerhound",
/* 65 */  "Sloughi",
/* 66 */  "Treeing Walker Coonhound",
/* 67 */  "Whippet",

  /* Toy */
/* 68 */  "Affenpinscher",
/* 69 */  "Biewer Terrier",
/* 70 */  "Brussels Griffon",
/* 71 */  "Cavalier King Charles Spaniel",
/* 72 */  "Chihuahua (Long-Haired)",
/* 73 */  "Chihuahua (Smooth)",
/* 74 */  "Chinese Crested",
/* 75 */  "English Toy Spaniel (B&PC)",
/* 76 */  "English Toy Spaniel (R&KC)",
/* 77 */  "Havanese",
/* 78 */  "Italian Greyhound",
/* 79 */  "Japanese Chin",
/* 80 */  "Maltese",
/* 81 */  "Manchester Terrier (Toy)",
/* 82 */  "Miniature Pinscher",
/* 83 */  "Papillon",
/* 84 */  "Pekingese",
/* 85 */  "Pomeranian",
/* 86 */  "Poodle (Toy)",
/* 87 */  "Pug",
/* 88 */  "Shih Tzu",
/* 89 */  "Silky Terrier",
/* 90 */  "Toy Fox Terrier",
/* 91 */  "Yorkshire Terrier",

  /* Non-Sporting */
/* 92 */  "American Eskimo Dog",
/* 93 */  "Bichon Frise",
/* 94 */  "Boston Terrier",
/* 95 */  "Bulldog",
/* 96 */  "Chinese Shar-Pei",
/* 97 */  "Chow Chow",
/* 98 */  "Coton De Tulear",
/* 99 */  "Dalmatian",
/* 100 */  "Finnish Spitz",
/* 101 */  "French Bulldog",
/* 102 */  "Keeshond",
/* 103 */  "Lhasa Apso",
/* 104 */  "Lowchen",
/* 105 */  "Norwegian Lundhund",
/* 106 */  "Poodle (Miniature)",
/* 107 */  "Poodle (Standard)",
/* 108 */  "Schipperke",
/* 109 */  "Shiba Inu",
/* 110 */  "Tibetan Spaniel",
/* 111 */  "Tibetan Terrier",
/* 112 */  "Xoloitzcuintli",

  /* Sporting */
/* 113 */  "American Water Spaniel",
/* 114 */  "Barbet",
/* 115 */  "Boykin Spaniel",
/* 116 */  "Brittany",
/* 117 */  "Chesapeake Bay Retriever",
/* 118 */  "Clumber Spaniel",
/* 119 */  "Cocker Spaniel (ASCOB)",
/* 120 */  "Cocker Spaniel (Black)",
/* 121 */  "Cocker Spaniel (Parti)",
/* 122 */  "Curly-Coated Retriever",
/* 123 */  "English Cocker Spaniel",
/* 124 */  "English Setter",
/* 125 */  "English Springer Spaniel",
/* 126 */  "Field Spaniel",
/* 127 */  "Flat-Coated Retriever",
/* 128 */  "German Shorthaired Pointer",
/* 129 */  "German Wirehaired Pointer",
/* 130 */  "Golden Retriever",
/* 131 */  "Gordon Setter",
/* 132 */  "Irish Red and White Setter",
/* 133 */  "Irish Setter",
/* 134 */  "Irish Water Spaniel",
/* 135 */  "Labrador Retriever",
/* 136 */  "Lagotto Romagnolo",
/* 137 */  "Nederlandse Kooikerhondje",
/* 138 */  "Nova Scotia Duck Tolling Retriever",
/* 139 */  "Pointer",
/* 140 */  "Spinone Italiano",
/* 141 */  "Sussex Spaniel",
/* 142 */  "Vizsla",
/* 143 */  "Weimaraner",
/* 144 */  "Welsh Springer Spaniel",
/* 145 */  "Wirehaired Pointing Griffon",
/* 146 */  "Wirehaired Vizsla",

  /* Terrier */
/* 147 */  "Airedale Terrier",
/* 148 */  "American Hairless Terrier",
/* 149 */  "American Staffordshire Terrier",
/* 150 */  "Australian Terrier",
/* 151 */  "Bedlington Terrier",
/* 152 */  "Border Terrier",
/* 153 */  "Bull Terrier (Colored)",
/* 154 */  "Bull Terrier (White)",
/* 155 */  "Cairn Terrier",
/* 156 */  "Cesky Terrier",
/* 157 */  "Dandie Dinmont Terrier",
/* 158 */  "Glen of Imaal Terrier",
/* 159 */  "Irish Terrier",
/* 160 */  "Kerry Blue Terrier",
/* 161 */  "Lakeland Terrier",
/* 162 */  "Manchester Terrier (Standard)",
/* 163 */  "Miniature Bull Terrier",
/* 164 */  "Miniature Schnauzer",
/* 165 */  "Norfolk Terrier",
/* 166 */  "Norwich Terrier",
/* 167 */  "Parson Russell Terrier",
/* 168 */  "Rat Terrier",
/* 169 */  "Russell Terrier",
/* 170 */  "Scottish Terrier",
/* 171 */  "Sealyham Terrier",
/* 172 */  "Skye Terrier",
/* 173 */  "Smooth Fox Terrier",
/* 174 */  "Soft Coated Wheaten Terrier",
/* 175 */  "Staffordshire Bull Terrier",
/* 176 */  "Welsh Terrier",
/* 177 */  "West Highland White Terrier",
/* 178 */  "Wire Fox Terrier",

  /* Working */
/* 179 */  "Akita",
/* 180 */  "Alaskan Malamute",
/* 181 */  "Anatolian Shepherd Dog",
/* 182 */  "Bernese Mountain Dog",
/* 183 */  "Black Russian Terrier",
/* 184 */  "Boerboel",
/* 185 */  "Boxer",
/* 186 */  "Bullmastiff",
/* 187 */  "Cane Corso",
/* 188 */  "Chinook",
/* 189 */  "Doberman Pinscher",
/* 190 */  "Dogo Argentino",
/* 191 */  "Dogue de Bordeaux",
/* 192 */  "German Pinscher",
/* 193 */  "Giant Schnauzer",
/* 194 */  "Great Dane",
/* 195 */  "Great Pyrenees",
/* 196 */  "Greater Swiss Mountain Dog",
/* 197 */  "Komondor",
/* 198 */  "Kuvasz",
/* 199 */  "Leonberger",
/* 200 */  "Mastiff",
/* 201 */  "Neapolitan Mastiff",
/* 202 */  "Newfoundland",
/* 203 */  "Portuguese Water Dog",
/* 204 */  "Rottweiler",
/* 205 */  "Saint Bernard",
/* 206 */  "Samoyed",
/* 207 */  "Siberian Husky",
/* 208 */  "Standard Schnauzer",
/* 209 */  "Tibetan Mastiff",

   /* Miscellaneous */
/* 210 */  "Bracco Italiano",
/* 211 */  "Dutch Shepherd",
/* 212 */  "Lancashire Heeler",
/* 213 */  "Mudi",
/* 214 */  "Norrbottenspets",
/* 215 */  "Peruvian Inca Orchid",
/* 216 */  "Portuguese Podengo",
/* 217 */  "Russian Toy",
/* 218 */  "Small Munsterlander",
/* 219 */  "Teddy Roosevelt Terrier"
];

number_of_days = 4;

breed_count_on_day = [|
  /* Herding */
      6,   10,   10,   10,
  |  23,   23,   24,   23,
  |   1,    1,    1,    1,
  |   0,    0,    1,    1,
  |   0,    0,    0,    0,
  |   4,    4,    4,    4,
  |   3,    2,    3,    3,
  |   1,    1,    1,    1,
  |   0,    0,    0,    0,
  |   2,    2,    5,    5,
  |   4,    4,    4,    4,
  |   0,    0,    0,    0,
  |   0,    0,    0,    0,
  |   0,    0,    0,    0,
  |   9,    8,   15,   15,
  |   2,    8,    3,    3,
  |   0,    0,    0,    0,
  |   0,    0,    0,    0,
  |   0,    0,    0,    0,
  |   3,    6,    9,    9,
  |   0,    0,    0,    0,
  |   5,    8,   10,    9,
  |   0,    0,    0,    0,
  |   0,    0,    0,    0,
  |  12,   14,   14,   15,
  |   0,    0,    0,    0,
  |   2,    2,    2,    2,
  |   6,    7,    7,    5,
  |   0,    0,    1,    1,
  |  29,   35,   38,   37,
  |   0,    0,    0,    0,
  |   0,    0,    0,    0,

  /* Hound */
  |   4,    8,    7,    8,
  |   0,    0,    0,    0,
  |   1,    1,    1,    1,
  |   0,    0,    0,    0,
  |   0,    0,    1,    1,
  |   0,    0,    0,    1,
  |   0,    0,    1,    1,
  |   0,    0,    3,    3,
  |   0,    0,    0,    0,
  |   2,    2,    2,    2,
  |   0,    0,    0,    0,
  |   2,    2,    4,    3,
  |   0,    0,    0,    0,
  |   9,    9,    9,    9,
  |   4,    2,    2,    2,
  |   0,    3,    3,    4,
  |   0,    0,    0,    0,
  |   0,    0,    0,    0,
  |   1,    1,    2,    2,
  |   0,    0,    0,    0,
  |   1,    1,    2,    1,
  |   0,    0,    5,    4,
  |   0,    0,    0,    0,
  |   0,    0,    0,    0,
  |   2,    2,    2,    2,
  |   0,    0,    0,    0,
  |   0,    0,    0,    0,
  |   3,    4,    4,    4,
  |   0,    0,    0,    0,
  |  11,   12,   16,   16,
  |   1,    1,    1,    1,
  |   0,    0,    0,    0,
  |   0,    0,    0,    0,
  |   0,    0,    0,    0,
  |   8,    8,   11,   11,

  /* Toy */
  |   1,    1,    1,    1,
  |   1,    5,    9,    9,
  |   1,    6,    3,    6,
  |  14,   15,   16,   16,
  |   8,    6,   11,   11,
  |  16,   11,   15,   15,
  |   4,    5,    6,    6,
  |   6,    6,    6,    6,
  |   2,    2,    0,    0,
  |  12,   11,   10,   10,
  |   0,    0,    0,    0,
  |   2,    2,    6,    6,
  |   4,    4,    4,    4,
  |   3,    3,    3,    3,
  |   7,    7,    8,    5,
  |  15,   12,   27,   25,
  |   2,    4,    4,    4,
  |  11,   13,   13,   11,
  |   0,    4,    4,    4,
  |   3,    3,    5,    5,
  |   2,    7,    6,    2,
  |   0,    0,    0,    0,
  |  12,   12,   13,   13,
  |   2,    2,    2,    2,

  /* Non-Sporting */
  |   0,    0,    0,    0,
  |   8,    8,    5	,    5,
  |   8,    8,    8,    6,
  |   3,    6,    9,    9,
  |   3,    3,    5,    5,
  |   0,    0,    0,    0,
  |   2,    2,    2,    2,
  |   4,    5,    7,    6,
  |   0,    1,    1,    1,
  |  23,   28,   28,   29,
  |   4,    8,    8,    8,
  |   4,    5,    5,    4,
  |   0,    2,    5,    5,
  |   0,    0,    0,    0,
  |   2,    2,    2,    2,
  |   7,    8,    9,    9,
  |   0,    0,    0,    0,
  |   8,    8,    8,    8,
  |   2,    2,    5,    4,
  |   1,    1,    1,    1,
  |   0,    0,    0,    0,

  /* Sporting */
  |   0,    0,    0,    0,
  |   0,    0,    0,    0,
  |   1,    1,    1,    1,
  |   1,    1,    5,    5,
  |   0,    0,    0,    0,
  |   1,    1,    1,    1,
  |   3,    2,    3,    2,
  |   2,    2,    2,    2,
  |   2,    2,    6,    6,
  |   0,    0,    0,    0,
  |   1,    1,    2,    2,
  |   0,    0,    0,    0,
  |   2,    3,    3,    2,
  |   0,    0,    1,    1,
  |   0,    0,    0,    0,
  |   6,    6,    7,    6,
  |   1,    1,    1,    1,
  |  17,   22,   17,   16,
  |   1,    1,    1,    1,
  |   0,    0,    0,    0,
  |   0,    0,    0,    0,
  |   1,    1,    1,    2,
  |  12,   14,   14,   15,
  |   1,    1,    1,    1,
  |   0,    0,    0,    0,
  |   1,    2,    3,    3,
  |   2,    2,    2,    2,
  |   2,    2,    4,    4,
  |   0,    0,    0,    0,
  |   7,    8,    9,    9,
  |   4,    4,    7,    7,
  |   0,    0,    0,    0,
  |   3,    3,    3,    3,
  |   0,    0,    0,    0,

  /* Terrier */
  |   0,    0,    0,    0,
  |   2,    2,    4,    4,
  |   1,    1,    1,    1,
  |   0,    0,    0,    1,
  |   0,    0,    0,    0,
  |   1,    1,    2,    2,
  |   1,    1,    1,    1,
  |   0,    0,    1,    1,
  |   0,    0,    0,    0,
  |   0,    0,    0,    0,
  |   1,    1,    1,    1,
  |   0,    0,    0,    0,
  |   0,    0,    0,    0,
  |   5,    5,    6,    6,
  |   0,    0,    0,    0,
  |   0,    0,    0,    0,
  |   0,    0,    0,    0,
  |   6,    6,    6,    6,
  |   2,    2,    2,    2,
  |   3,    3,    3,    3,
  |   0,    0,    0,    0,
  |   0,    0,    1,    1,
  |   0,    0,    0,    0,
  |   9,    9,   10,   10,
  |   5,    5,    5,    5,
  |   1,    1,    1,    1,
  |   3,    4,    4,    3,
  |   1,    1,    2,    2,
  |   3,    3,    3,    3,
  |   0,    0,    0,    0,
  |   2,    2,    3,    3,
  |   0,    0,    0,    0,

  /* Working */
  |   5,    5,    6,    4,
  |   1,    1,    3,    3,
  |   0,    0,    0,    0,
  |   9,    9,    8,    8,
  |   2,    2,    2,    2,
  |   0,    0,    0,    0,
  |  21,   24,   29,   20,
  |   0,    0,    3,    3,
  |   7,    6,    6,    5,
  |   0,    0,    0,    0,
  |  43,   49,   50,   42,
  |   0,    0,    0,    0,
  |   0,    0,    0,    0,
  |  10,   11,   12,   12,
  |   2,    2,    2,    2,
  |  25,   33,   33,   31,
  |   0,    0,    0,    0,
  |   3,    3,    4,    4,
  |   0,    0,    0,    0,
  |   0,    0,    0,    0,
  |   0,    4,    4,    4,
  |   3,    4,    5,    5,
  |   0,    0,    0,    0,
  |   6,    6,    6,    6,
  |   6,    8,    8,    5,
  |   6,    6,    7,    7,
  |   1,    1,    1,    1,
  |  17,   19,   22,   17,
  |   6,    7,   12,   13,
  |   5,    5,    7,    7,
  |   0,    0,    1,    1,

   /* Miscellaneous */
  |   0,    0,    0,    0,
  |   0,    0,    0,    0,
  |   0,    0,    0,    0,
  |   0,    0,    0,    0,
  |   0,    0,    0,    0,
  |   0,    0,    0,    0,
  |   0,    0,    0,    0,
  |   0,    0,    0,    0,
  |   0,    0,    0,    0,
  |   0,    0,    0,    0,
  |];

number_of_judges = 17;

judge_name = [
  "Ms Vicki E Allenbrand",
  "Dr Albert P Bianchi",
  "Ms Gena Box-Young",
  "Mr John Constantine-Amodei",
  "Mr Edmund Dziuk",
  "Jennie Hynes",
  "Ms Terri Lyddon",
  "Mrs Karen S McFarlane",
  "Mr Ken J Murray",
  "Mrs Pamela B Peat",
  "Mr Jeffrey G Pepper",
  "Mrs Angela Pickett",
  "Mrs Linda M Riedel",
  "Ms Yvonne Samuelson",
  "Mrs Nancy D Simmons",
  "Mr Joe C Walton",
  "Mrs Sherry C Webster",
];

/* We don't necessarily have hard info on what days a judge
   is available. As a proxy, we will say that if a judge has
   been assigned at least one breed on a given day, then they
   are available that day; and if not assigned a breed on that
   day, they aren't considered available for purposes of
   swapping to resolve overdraws. */

original_judge_assignments_by_breed_and_day = [|
  /* Herding */
     17,  15,  13,   2,
  |  17,   7,  13,  15,
  |  17,  15,  13,   2,
  |  17,   1,  13,   2,
  |  17,  15,  13,   2,
  |  17,   1,  13,   2,
  |  17,  15,  13,   2,
  |  17,  15,  13,   2,
  |  17,  15,  13,   2,
  |  17,  15,  13,   2,
  |  17,  15,  13,   2,
  |  17,  15,  13,   2,
  |  17,  15,  13,   2,
  |  17,  15,  13,   2,
  |  17,  15,  13,   2,
  |  17,  14,  13,  15,
  |  17,  14,  13,  15,
  |  17,  15,  13,   2,
  |  17,  15,  13,   2,
  |  17,  15,  13,   2,
  |  17,  15,  13,   2,
  |  17,  15,  13,   2,
  |  17,   1,  13,   2,
  |  17,  15,  13,   2,
  |  17,   1,  13,   2,
  |  17,   1,  13,   2,
  |  17,  15,  13,   2,
  |  17,  15,  13,   2,
  |  17,   1,  13,   2,
  |  17,  14,  13,   2,
  |  17,  15,  13,   2,
  |  17,   1,  13,   2,

  /* Hound */
  |  11,  13,  16,   2,
  |  11,  13,  16,   5,
  |  11,  13,  16,   5,
  |  11,  13,  12,   5,
  |  11,  13,  12,   5,
  |  11,  13,  12,   5,
  |  11,   6,  16,  13,
  |  11,   6,  16,  13,
  |  11,  13,  16,   5,
  |  11,  13,  12,   5,
  |  11,  13,  12,   5,
  |  11,  13,  16,   5,
  |  11,  13,  12,   5,
  |  11,  13,  12,  16,
  |  11,  13,  12,  16,
  |  11,  13,  12,   5,
  |  11,  13,  16,   5,
  |  11,  13,  16,   5,
  |  11,  13,  16,   5,
  |  11,  13,  16,   5,
  |  11,  13,  16,   5,
  |  11,  13,  16,   5,
  |  11,  13,  16,   5,
  |  11,  13,  12,   5,
  |  11,  13,  16,   5,
  |  11,  13,  16,   5,
  |  11,  13,  16,   5,
  |  11,  13,  16,   5,
  |  11,  13,  16,   5,
  |  11,   9,  16,  13,
  |  11,   2,  16,   5,
  |  11,  13,  16,   5,
  |  11,  13,  16,   5,
  |  11,  13,  12,   5,
  |  11,   2,  16,   5,

  /* Toy */
  |   9,   4,  15,  10,
  |   9,   2,  15,  10,
  |   9,   2,  15,  10,
  |  11,   4,  15,	 10,
  |   9,   4,  15,  10,
  |   9,   4,  15,  10,
  |   9,   4,  15,  10,
  |   9,   2,  15,  10,
  |   9,   2,  15,  10,
  |   9,  16,  10,   4,
  |   9,  16,  10,   4,
  |   9,   2,  10,   4,
  |   9,  16,  10,   4,
  |   9,  16,  10,   4,
  |   9,  16,  10,   5,
  |   9,  16,  10,   4,
  |  16,   2,  10,   4,
  |  16,  15,  10,   4,
  |   9,  16,   2,   4,
  |  16,  15,  10,   4,
  |  16,   2,   4,   9,
  |  16,  15,  10,   4,
  |  16,   2,  10,   4,
  |  16,   4,  10,   9,

  /* Non-Sporting */
  |  4,    7,  12,  16,
  |  4,    7,  12,  16,
  |  4,    7,  12,  16,
  | 16,    7,  12,   4,
  | 15,    7,  12,  16,
  |  4,    7,  12,  16,
  |  4,    7,  12,  16,
  |  4,    7,  12,  16,
  |  4,    7,  12,  16,
  |  4,    7,  15,  10,
  | 15,    7,  12,  10,
  |  4,    7,  12,  15,
  |  4,    7,  12,  10,
  |  4,    7,  12,  10,
  |  9,    7,  12,  10,
  |  9,    7,  12,  10,
  |  4,    7,  12,  10,
  |  4,    7,  12,  15,
  |  4,    7,  12,  15,
  |  4,    7,  12,  10,
  |  4,    7,  12,  10,

  /* Sporting */
  | 16,   11,   9,   5,
  | 15,   11,   9,  16,
  | 15,   11,   9,   5,
  | 17,   11,   9,  15,
  | 15,   11,   9,  16,
  | 16,   11,   9,   5,
  | 15,   11,   9,  16,
  | 15,   11,   9,  16,
  | 15,   11,   9,  16,
  | 16,   11,   9,  15,
  | 17,   11,   9,  16,
  | 15,   11,   9,  16,
  | 15,   11,   9,   5,
  | 15,   11,   9,   5,
  | 15,   11,   9,  16,
  | 17,   11,   9,  16,
  | 15,   16,   9,   5,
  | 15,   11,   9,  16,
  | 15,   11,   9,  16,
  | 16,   11,   9,  15,
  | 16,   11,   9,  15,
  | 15,   11,   9,   5,
  | 15,   11,   9,  16,
  | 15,   11,   9,  16,
  | 15,   11,   9,  16,
  | 15,   11,   9,  16,
  | 16,   11,   9,  15,
  | 16,   11,   9,   5,
  | 15,   11,   9,   5,
  | 17,   11,   9,   5,
  | 16,   11,  13,   5,
  | 16,   11,   9,  15,
  | 16,   11,   9,   5,
  | 16,   11,   9,   5,

  /* Terrier */
  | 16,   10,   4,   9,
  | 16,   10,   4,   9,
  | 16,   10,   4,   9,
  |  8,   10,   4,   9,
  |  8,   10,   4,   9,
  | 16,   10,   4,   9,
  | 16,   10,   4,   9,
  | 16,   10,   4,   9,
  | 16,   10,   4,   9,
  | 16,   10,   4,   9,
  |  8,   10,   4,   9,
  | 16,   10,   4,   9,
  |  8,   10,   4,   9,
  | 16,   10,   4,   9,
  | 16,   10,   4,   9,
  | 16,   10,   4,   9,
  | 16,   10,   4,   9,
  | 16,   10,   4,   9,
  | 16,   10,   4,   9,
  | 16,   10,   4,   9,
  | 16,   10,   4,   9,
  | 16,   10,   4,   9,
  | 16,   10,   4,   9,
  | 16,   10,   4,   9,
  |  8,   10,   4,   9,
  | 16,   10,   4,   9,
  | 16,   10,   4,   9,
  | 16,   10,   4,   9,
  | 16,   10,   4,   9,
  |  8,   10,   4,   9,
  |  8,   10,   4,   9,
  | 16,   10,   4,   9,

  /* Working */
  |  8,    9,   4,  13,
  |  1,    9,   2,  13,
  |  4,    9,   2,  13,
  |  4,    9,   1,  15,
  |  4,    9,   1,  13,
  |  4,    9,   1,  13,
  |  4,    9,   2,  15,
  |  4,    9,   2,  13,
  |  4,    9,   2,  15,
  |  4,    9,   2,  13,
  |  1,   13,  16,   9,
  |  4,    9,   1,  13,
  |  4,    9,   2,  13,
  |  4,    9,   1,  13,
  |  4,    9,   2,  13,
  | 15,   13,   4,   2,
  |  4,    9,   2,  13,
  |  4,    9,   2,  13,
  |  4,    9,   2,  13,
  |  4,    9,   2,  13,
  |  4,    9,   2,  13,
  |  1,    4,  15,  13,
  |  4,    9,   2,  13,
  |  1,    9,  15,  13,
  |  4,    9,  15,  13,
  |  8,    9,  15,  13,
  |  4,    9,   1,  13,
  | 17,    4,   2,  13,
  |  1,   15,   4,  13,
  |  4,   15,   1,  13,
  |  4,    9,   2,  13,

   /* Miscellaneous */
  |  1,   10,  12,  15,
  |  1,   10,  12,  15,
  |  1,   10,  12,  15,
  |  1,   10,  12,  15,
  |  1,   10,  12,  15,
  |  1,   10,  12,  15,
  |  1,   10,  12,  15,
  |  1,   10,  12,  15,
  |  1,   10,  12,  15,
  |  1,   10,  12,  15,
  |];

eligible_breeds_for_judge = [
  /* Ms Vicki E Allenbrand */
  { 179, 180, 181, 182, 183, 184, 185,
    186, 187, 188, 189, 190, 191, 192,
    193, 194, 195, 196, 197, 198, 199,
    200, 201, 202, 203, 204, 205, 206,
    207, 208, 209,
    1, 2, 4, 6, 9, 10, 11, 13,
    15, 16, 17, 18, 20, 21, 23,
    25, 26, 28, 29, 30, 31, 32,
    210, 211, 212, 213, 214, 215, 216,
    217, 218, 219 },
  },
  /* Dr Albert P Bianchi */
  { 116, 130, 135, 33, 37, 50,
    51, 55, 56, 57, 60, 62, 63, 67,
    162, 164, 68, 69, 70, 71, 72, 73,
    74, 75, 76, 77, 78, 79, 80, 81,
    82, 83, 84, 85, 86, 87, 217, 88,
    89, 90, 91,
    92, 93, 94, 95, 96. 97, 98, 99,
    100, 101, 102, 103, 104, 105, 106,
    107, 108, 109, 110, 111, 112,
    1, 2, 3, 4, 5, 6, 7, 8, 9, 10,
    11, 12, 13, 14, 15, 16, 17, 18,
    19, 20, 21, 22, 23, 24, 25, 26,
    27, 28, 29, 30, 31, 32,
    210, 211, 212, 213, 214, 215, 216,
    217, 218, 219 },
  /* Ms Gena Box-Young */
  { 179, 180, 185, 189, 192, 193, 194,
    198, 205, 206, 207 },
  /* Mr John Constantine-Amodei */
  { 37, 38, 44, 51, 53, 55, 58, 62,
    179, 180, 181, 182, 183, 184, 185,
    186, 187, 188, 189, 190, 191, 192,
    193, 194, 195, 196, 197, 198, 199,
    200, 201, 202, 203, 204, 205, 206,
    207, 208, 209,
    147, 148, 149, 150, 151, 152, 153,
    154, 155, 156, 157, 158, 159, 160,
    161, 162, 163, 164, 165, 166, 167,
    168, 169, 170, 171, 172, 173, 174,
    175, 176, 177, 178,
    68, 69, 70, 71, 72, 73, 74, 75, 76,
    77, 78, 79, 80, 81, 82, 83, 84, 85,
    86, 87, 88, 89, 90, 91,
    92, 93, 94, 95, 96. 97, 98, 99,
    100, 101, 102, 103, 104, 105, 106,
    107, 108, 109, 110, 111, 112,
    210, 211, 212, 213, 214, 215, 216,
    217, 218, 219 },
];
  "Mr Edmund Dziuk",
  "Jennie Hynes",
  "Ms Terri Lyddon",
  "Mrs Karen S McFarlane",
  "Mr Ken J Murray",
  "Mrs Pamela B Peat",
  "Mr Jeffrey G Pepper",
  "Mrs Angela Pickett",
  "Mrs Linda M Riedel",
  "Ms Yvonne Samuelson",
  "Mrs Nancy D Simmons",
  "Mr Joe C Walton",
  "Mrs Sherry C Webster",

max_dogs_for_judge_on_day = [|
    175, 175, 175, 175,
  | 175, 175, 175, 175,
  | 175, 175, 175, 175,
  | 175, 175, 175, 175,
  | 175, 175, 175, 175,
  | 175, 175, 175, 175,
  | 175, 175, 175, 175,
  | 175, 175, 175, 175,
  | 175, 175, 175, 175,
  | 175, 175, 175, 175,
  | 175, 175, 175, 175,
  | 175, 175, 175, 175,
  | 175, 175, 175, 175,
  | 175, 175, 175, 175,
  | 175, 175, 175, 175,
  | 175, 175, 175, 175,
  | 175, 175, 175, 175,
  |];
